
n_res = 4;
rcap = [16, 18, 368, 406];
rtype = [1, 1, 2, 2];
n_tasks = 100;
modes =  [{1, 2, 3}, {4, 5, 6}, {7, 8, 9}, {10, 11, 12}, {13, 14, 15}, {16, 17, 18}, {19, 20, 21}, {22, 23, 24}, {25, 26, 27}, {28, 29, 30}, {31, 32, 33}, {34, 35, 36}, {37, 38, 39}, {40, 41, 42}, {43, 44, 45}, {46, 47, 48}, {49, 50, 51}, {52, 53, 54}, {55, 56, 57}, {58, 59, 60}, {61, 62, 63}, {64, 65, 66}, {67, 68, 69}, {70, 71, 72}, {73, 74, 75}, {76, 77, 78}, {79, 80, 81}, {82, 83, 84}, {85, 86, 87}, {88, 89, 90}, {91, 92, 93}, {94, 95, 96}, {97, 98, 99}, {100, 101, 102}, {103, 104, 105}, {106, 107, 108}, {109, 110, 111}, {112, 113, 114}, {115, 116, 117}, {118, 119, 120}, {121, 122, 123}, {124, 125, 126}, {127, 128, 129}, {130, 131, 132}, {133, 134, 135}, {136, 137, 138}, {139, 140, 141}, {142, 143, 144}, {145, 146, 147}, {148, 149, 150}, {151, 152, 153}, {154, 155, 156}, {157, 158, 159}, {160, 161, 162}, {163, 164, 165}, {166, 167, 168}, {169, 170, 171}, {172, 173, 174}, {175, 176, 177}, {178, 179, 180}, {181, 182, 183}, {184, 185, 186}, {187, 188, 189}, {190, 191, 192}, {193, 194, 195}, {196, 197, 198}, {199, 200, 201}, {202, 203, 204}, {205, 206, 207}, {208, 209, 210}, {211, 212, 213}, {214, 215, 216}, {217, 218, 219}, {220, 221, 222}, {223, 224, 225}, {226, 227, 228}, {229, 230, 231}, {232, 233, 234}, {235, 236, 237}, {238, 239, 240}, {241, 242, 243}, {244, 245, 246}, {247, 248, 249}, {250, 251, 252}, {253, 254, 255}, {256, 257, 258}, {259, 260, 261}, {262, 263, 264}, {265, 266, 267}, {268, 269, 270}, {271, 272, 273}, {274, 275, 276}, {277, 278, 279}, {280, 281, 282}, {283, 284, 285}, {286, 287, 288}, {289, 290, 291}, {292, 293, 294}, {295, 296, 297}, {298, 299, 300}];
succ =  [{40, 30, 25, 15, 11}, {43, 42, 38, 30, 11}, {50, 48, 45, 44, 39, 37, 26, 14}, {58, 53, 52, 49, 48, 45, 44, 43, 35, 29, 28, 27}, {61, 58, 53, 45, 44, 42, 41, 40, 37, 35, 33, 27}, {61, 58, 49, 48, 44, 42, 40, 35, 27, 23}, {49, 45, 44, 43, 42, 40, 35, 33, 28, 27}, {56, 53, 48, 39, 33, 30, 28, 19}, {56, 55, 45, 44, 43, 42, 40, 37, 32, 31, 27}, {58, 53, 48, 44, 29, 28, 27, 26}, {53, 52, 49, 48, 45, 44, 35, 28, 27}, {53, 48, 45, 44, 35, 15}, {63, 61, 58, 56, 51, 50, 48, 41, 39, 25}, {68, 61, 58, 53, 52, 51, 47, 46, 43, 42, 38, 35}, {63, 61, 58, 57, 56, 55, 52, 51, 49, 39, 29}, {53, 51, 45, 43, 42, 41, 39, 33}, {61, 49, 39, 37, 35, 29}, {68, 59, 54, 50, 49, 46, 44, 42, 41, 33}, {68, 63, 58, 57, 55, 52, 51, 49, 47, 46, 45, 42}, {73, 55, 54, 53, 52, 39, 30}, {68, 61, 51, 49, 47, 46, 44, 41, 35}, {73, 55, 43, 41, 40, 39}, {73, 68, 57, 56, 51, 47, 45, 43, 41}, {68, 65, 59, 57, 54, 46, 42, 33}, {100, 79, 68, 60, 57, 55, 49, 46, 45, 42}, {100, 79, 74, 73, 69, 68, 66, 62, 59, 57, 56, 55, 54, 52, 49}, {79, 73, 72, 67, 66, 65, 57, 54, 50, 39}, {77, 75, 73, 64, 63, 61, 59, 57, 51, 47, 41}, {73, 72, 68, 59, 54, 47, 46, 41}, {79, 63, 59, 58, 50, 47, 41}, {77, 75, 72, 69, 68, 64, 63, 61, 58, 57, 41}, {77, 73, 72, 69, 64, 59, 46, 41}, {100, 82, 79, 78, 77, 74, 63, 62, 55, 52, 47}, {99, 82, 67, 64, 63, 62, 59, 54, 48, 47}, {100, 98, 95, 82, 79, 77, 75, 74, 69, 65, 59, 57, 56, 55}, {100, 77, 74, 68, 66, 65, 64, 63, 61, 59, 57, 47}, {100, 77, 68, 67, 66, 65, 64, 51, 47}, {79, 69, 59, 54, 41}, {77, 74, 71, 68, 64, 59, 47, 46}, {82, 79, 75, 63, 57, 54, 47}, {100, 99, 98, 97, 93, 81, 78, 76, 74, 71, 70, 67, 66, 65}, {98, 97, 96, 95, 81, 77, 75, 73, 70, 69, 66, 64}, {98, 97, 96, 77, 74, 71, 69, 64, 63, 62}, {100, 98, 96, 93, 74, 70, 66, 63, 57}, {98, 97, 96, 74, 64, 59, 54}, {99, 98, 96, 95, 92, 90, 89, 81, 78, 76, 70, 62}, {97, 96, 95, 81, 76, 70, 69, 60}, {100, 97, 96, 95, 94, 92, 90, 89, 88, 81, 77, 76, 74}, {98, 97, 93, 91, 88, 81, 80, 76, 67, 65}, {97, 95, 90, 89, 82, 81, 76, 64, 62}, {96, 94, 89, 81, 79, 72, 71, 70, 69}, {99, 97, 96, 91, 80, 76, 72, 64, 60}, {99, 98, 97, 87, 77, 69, 63}, {95, 90, 89, 88, 80, 77, 76, 71}, {92, 91, 90, 86, 72, 70, 64}, {99, 94, 90, 89, 88, 87, 86, 84, 83, 80}, {97, 91, 89, 88, 85, 83, 81, 76}, {100, 93, 92, 90, 86, 83, 80, 70}, {93, 92, 89, 87, 84, 83, 81, 80}, {98, 94, 93, 89, 88, 86, 85, 84, 83}, {96, 94, 92, 91, 86, 83, 76}, {94, 93, 91, 88, 84, 75}, {95, 91, 90, 89, 84, 83, 81}, {93, 88, 87, 85, 84, 83}, {96, 92, 89, 86, 84, 83}, {94, 92, 91, 89, 82}, {95, 90, 87, 86, 84}, {89, 88, 87, 86, 83}, {92, 90, 80}, {88, 85, 84}, {87, 84, 83}, {93, 84, 83}, {89, 86, 85}, {83, 80}, {83, 80}, {87, 84}, {91, 83}, {85, 83}, {87, 83}, {85}, {86}, {88}, {}, {}, {}, {}, {}, {}, {}, {}, {}, {}, {}, {}, {}, {}, {}, {}, {}, {}];
n_opt = 300;
dur = [1, 3, 5, 2, 8, 10, 1, 2, 5, 3, 3, 4, 2, 8, 8, 6, 8, 8, 2, 3, 7, 1, 10, 10, 8, 10, 10, 4, 5, 8, 1, 2, 5, 2, 5, 10, 2, 5, 10, 2, 10, 10, 9, 9, 10, 7, 7, 9, 2, 2, 10, 3, 4, 7, 2, 3, 10, 1, 4, 7, 1, 4, 5, 2, 4, 9, 3, 4, 10, 4, 5, 7, 3, 7, 8, 1, 9, 10, 6, 8, 8, 1, 3, 10, 2, 7, 8, 3, 8, 10, 1, 8, 10, 1, 4, 5, 1, 3, 9, 7, 8, 8, 3, 5, 8, 6, 8, 10, 2, 5, 7, 1, 3, 7, 2, 4, 8, 3, 7, 7, 3, 6, 8, 6, 8, 10, 4, 8, 10, 1, 6, 9, 4, 9, 10, 1, 6, 6, 5, 6, 7, 2, 3, 6, 3, 5, 9, 2, 4, 5, 5, 6, 8, 2, 2, 3, 1, 3, 5, 6, 7, 10, 1, 4, 10, 2, 8, 8, 2, 7, 10, 1, 3, 6, 1, 5, 10, 1, 4, 6, 4, 8, 9, 1, 4, 5, 6, 8, 8, 1, 1, 3, 2, 4, 10, 2, 5, 9, 3, 4, 6, 2, 3, 4, 5, 8, 10, 2, 4, 8, 6, 8, 8, 3, 10, 10, 2, 6, 8, 1, 4, 5, 1, 5, 9, 4, 9, 10, 5, 10, 10, 2, 6, 9, 1, 3, 9, 1, 5, 5, 4, 7, 9, 1, 8, 10, 2, 3, 5, 4, 6, 8, 2, 2, 3, 2, 2, 4, 3, 3, 6, 1, 8, 9, 2, 6, 10, 3, 6, 8, 1, 5, 6, 4, 9, 10, 3, 8, 8, 2, 8, 9, 3, 4, 5, 2, 3, 7, 4, 5, 10, 1, 3, 4, 1, 4, 6, 3, 5, 6];
rreq = [|5, 0, 2, 3, 3, 0, 0, 0, 0, 5, 0, 0, 4, 4, 0, 0, 1, 0, 2, 0, 1, 0, 0, 1, 4, 0, 0, 3, 2, 0, 3, 2, 1, 0, 0, 0, 3, 0, 0, 4, 3, 0, 0, 3, 3, 4, 0, 0, 5, 0, 4, 0, 0, 0, 0, 0, 0, 0, 0, 0, 0, 0, 0, 0, 3, 0, 2, 1, 1, 0, 0, 0, 0, 0, 0, 0, 0, 0, 5, 3, 1, 0, 0, 0, 0, 0, 0, 4, 0, 4, 0, 0, 2, 2, 0, 0, 4, 0, 0, 0, 0, 2, 4, 0, 0, 4, 0, 0, 0, 0, 1, 0, 3, 0, 2, 2, 2, 0, 2, 0, 2, 0, 1, 0, 0, 0, 5, 3, 3, 2, 2, 0, 0, 3, 0, 2, 0, 2, 5, 0, 4, 4, 2, 1, 5, 4, 0, 0, 0, 0, 0, 4, 4, 5, 0, 0, 0, 0, 3, 0, 2, 0, 0, 0, 4, 4, 3, 0, 1, 1, 1, 0, 0, 0, 4, 0, 2, 0, 0, 1, 0, 0, 0, 3, 0, 0, 0, 0, 3, 0, 3, 3, 4, 4, 4, 0, 3, 0, 4, 3, 0, 0, 2, 0, 4, 0, 2, 3, 0, 0, 2, 0, 1, 0, 4, 0, 0, 0, 1, 0, 0, 0, 5, 0, 0, 0, 2, 0, 0, 0, 5, 0, 1, 1, 0, 5, 0, 0, 3, 0, 0, 0, 0, 4, 4, 0, 4, 3, 0, 0, 0, 3, 4, 0, 0, 0, 0, 0, 0, 0, 0, 0, 0, 0, 4, 0, 0, 4, 0, 0, 0, 0, 4, 0, 0, 0, 4, 0, 4, 0, 0, 0, 0, 0, 2, 0, 4, 4, 3, 3, 3, 3, 2, 2, 4, 3, 0, 0, 0, 0
 |0, 3, 0, 0, 0, 1, 2, 1, 1, 0, 2, 2, 0, 0, 1, 4, 0, 2, 0, 3, 0, 4, 2, 0, 0, 3, 3, 0, 0, 3, 0, 0, 0, 4, 4, 4, 0, 1, 1, 0, 0, 4, 1, 0, 0, 0, 3, 3, 0, 4, 0, 3, 2, 2, 4, 2, 1, 2, 1, 1, 3, 2, 1, 4, 0, 3, 0, 0, 0, 3, 2, 2, 4, 3, 2, 5, 4, 4, 0, 0, 0, 1, 1, 1, 5, 4, 4, 0, 4, 0, 2, 1, 0, 0, 2, 1, 0, 1, 1, 3, 3, 0, 0, 3, 3, 0, 3, 1, 2, 1, 0, 3, 0, 3, 0, 0, 0, 4, 0, 3, 0, 1, 0, 3, 3, 2, 0, 0, 0, 0, 0, 2, 5, 0, 5, 0, 2, 0, 0, 1, 0, 0, 0, 0, 0, 0, 1, 3, 3, 3, 2, 0, 0, 0, 3, 3, 3, 1, 0, 4, 0, 2, 3, 2, 0, 0, 0, 4, 0, 0, 0, 3, 1, 1, 0, 4, 0, 3, 3, 0, 3, 2, 2, 0, 1, 1, 3, 3, 0, 3, 0, 0, 0, 0, 0, 3, 0, 2, 0, 0, 4, 5, 0, 2, 0, 4, 0, 0, 4, 4, 0, 1, 0, 2, 0, 1, 4, 3, 0, 4, 4, 3, 0, 3, 2, 3, 0, 3, 3, 3, 0, 2, 0, 0, 3, 0, 2, 4, 0, 4, 3, 3, 3, 0, 0, 2, 0, 0, 3, 5, 3, 0, 0, 3, 3, 3, 1, 1, 4, 4, 4, 1, 1, 1, 0, 4, 2, 0, 3, 3, 4, 2, 0, 5, 4, 2, 0, 3, 0, 5, 3, 2, 2, 2, 0, 2, 0, 0, 0, 0, 0, 0, 0, 0, 0, 0, 4, 4, 3, 1
 |0, 6, 4, 0, 0, 7, 5, 4, 3, 0, 4, 2, 0, 0, 6, 0, 0, 3, 8, 0, 5, 0, 0, 0, 3, 3, 0, 0, 4, 4, 0, 7, 6, 0, 6, 0, 10, 0, 3, 3, 3, 2, 5, 0, 0, 8, 7, 6, 0, 5, 4, 9, 6, 0, 0, 0, 6, 0, 0, 3, 0, 0, 0, 0, 0, 3, 0, 0, 0, 0, 0, 0, 0, 7, 6, 0, 0, 4, 4, 4, 0, 9, 8, 0, 5, 3, 2, 0, 0, 4, 0, 0, 3, 0, 0, 0, 0, 0, 0, 0, 0, 4, 9, 0, 0, 4, 0, 3, 2, 0, 1, 0, 3, 0, 0, 3, 0, 10, 4, 0, 0, 0, 8, 0, 0, 8, 0, 2, 1, 10, 0, 4, 0, 4, 2, 0, 4, 0, 6, 0, 3, 0, 0, 0, 5, 4, 4, 5, 0, 3, 4, 0, 4, 6, 6, 5, 6, 6, 0, 0, 0, 7, 0, 8, 0, 0, 0, 4, 8, 0, 4, 4, 0, 0, 0, 0, 3, 6, 0, 3, 6, 0, 0, 0, 2, 0, 0, 4, 0, 0, 7, 6, 10, 8, 0, 0, 0, 0, 7, 6, 0, 0, 4, 0, 0, 1, 1, 7, 7, 0, 0, 0, 1, 0, 5, 4, 0, 2, 2, 0, 3, 0, 5, 4, 0, 0, 0, 6, 6, 4, 0, 0, 6, 5, 5, 0, 0, 3, 0, 1, 8, 7, 0, 0, 3, 0, 8, 8, 7, 0, 4, 4, 0, 4, 3, 0, 2, 0, 3, 0, 0, 9, 0, 4, 2, 2, 0, 8, 0, 0, 9, 0, 5, 0, 6, 6, 5, 0, 3, 0, 0, 1, 4, 3, 0, 0, 0, 0, 0, 7, 5, 9, 9, 0, 3, 0, 0, 5, 0, 0
 |5, 0, 0, 9, 6, 0, 0, 0, 0, 4, 0, 0, 6, 5, 0, 6, 5, 0, 0, 4, 0, 9, 7, 3, 0, 0, 2, 9, 0, 0, 7, 0, 0, 9, 0, 6, 0, 8, 0, 0, 0, 0, 0, 2, 1, 0, 0, 0, 3, 0, 0, 0, 0, 4, 7, 3, 0, 6, 5, 0, 6, 6, 5, 2, 2, 0, 5, 3, 1, 7, 7, 6, 8, 0, 0, 5, 3, 0, 0, 0, 5, 0, 0, 8, 0, 0, 0, 7, 5, 0, 5, 4, 0, 4, 4, 3, 4, 3, 2, 8, 7, 0, 0, 5, 4, 0, 4, 0, 0, 6, 0, 7, 0, 6, 5, 0, 3, 0, 0, 10, 9, 8, 0, 2, 1, 0, 10, 0, 0, 0, 6, 0, 8, 0, 0, 6, 0, 1, 0, 5, 0, 4, 3, 3, 0, 0, 0, 0, 1, 0, 0, 6, 0, 0, 0, 0, 0, 0, 5, 5, 5, 0, 4, 0, 4, 2, 2, 0, 0, 9, 0, 0, 5, 1, 7, 5, 0, 0, 4, 0, 0, 6, 2, 6, 0, 4, 10, 0, 8, 7, 0, 0, 0, 0, 6, 2, 2, 2, 0, 0, 4, 8, 0, 7, 9, 0, 0, 0, 0, 7, 7, 6, 0, 5, 0, 0, 6, 0, 0, 7, 0, 7, 0, 0, 8, 8, 6, 0, 0, 0, 1, 9, 0, 0, 0, 4, 3, 0, 3, 0, 0, 0, 2, 8, 0, 6, 0, 0, 0, 10, 0, 0, 10, 0, 0, 5, 0, 3, 0, 6, 5, 0, 3, 0, 0, 0, 3, 0, 5, 4, 0, 5, 0, 5, 0, 0, 0, 4, 0, 5, 4, 0, 0, 0, 7, 5, 4, 3, 6, 0, 0, 0, 0, 6, 0, 1, 1, 0, 4, 4|];